#######################################
### Exact MIP solver for the HHCRSP ###
#######################################
-- Instance file: new-instances/HHCRSP_50_10_7_1.0_R_C.txt
-- Max threads: 4
-- Time limit: 999999 seconds
-- Use initial solution: No
Trivial flow violations prevented generating 5768 variables.
Model exported.
Version identifier: 20.1.0.0 | 2020-11-10 | 9bedb6d68
CPXPARAM_Threads                                 4
CPXPARAM_TimeLimit                               999999
Parallel mode: deterministic, using up to 4 threads for concurrent optimization:
 * Starting dual Simplex on 1 thread...
 * Starting Barrier on 3 threads...
Tried aggregator 1 time.
LP Presolve eliminated 1194 rows and 270 columns.
Reduced LP has 5468 rows, 5304 columns, and 43927 nonzeros.
Presolve time = 0.02 sec. (13.15 ticks)
Symmetry aggregator did 3959 additional substitutions.

Iteration log . . .
Iteration:     1   Dual objective     =             0.000000

Dual crossover.
  Dual:  Fixing 78 variables.
       77 DMoves:  Infeasibility  5.82867850e-15  Objective  9.76666667e+01
        0 DMoves:  Infeasibility  8.49321376e-15  Objective  9.76666667e+01
  Dual:  Pushed 8, exchanged 70.
  Primal:  Fixing 32 variables.
       31 PMoves:  Infeasibility  0.00000000e+00  Objective  9.76666667e+01
        0 PMoves:  Infeasibility  0.00000000e+00  Objective  9.76666667e+01
  Primal:  Pushed 6, exchanged 26.

Dual simplex solved model.


Solution status from MIP model:
-- Processing time: 0.054 sec.
-- Memory used: 72.2725 MB
-- Best bound: inf
-- Obj value: 97.6667
-- Gap: inf%
-- Total distance: 293
-- Total tardiness: 0
-- Largest tardiness: 0
